c blocksworld satplan A,B,C horizon 4 goal: OT_A and OnBC
p cnf 152 3001
4 0
2 0
3 0
10 0
12 0
16 0
-1 0
-5 0
-6 0
-7 0
-8 0
-9 0
-11 0
-13 0
-14 0
-15 0
65 0
74 0
71 0
-1 -4 0
-1 -5 0
-4 -5 0
-2 -6 0
-2 -7 0
-6 -7 0
-3 -8 0
-3 -9 0
-8 -9 0
-6 -8 0
-4 -9 0
-5 -7 0
-4 -11 0
-5 -12 0
-6 -10 0
-7 -12 0
-8 -10 0
-9 -11 0
-13 -1 0
-13 -4 0
-13 -5 0
-14 -2 0
-14 -6 0
-14 -7 0
-15 -3 0
-15 -8 0
-15 -9 0
-13 -14 0
-13 -15 0
-14 -15 0
16 13 14 15 0
-16 -13 0
-16 -14 0
-16 -15 0
-17 -20 0
-17 -21 0
-20 -21 0
-18 -22 0
-18 -23 0
-22 -23 0
-19 -24 0
-19 -25 0
-24 -25 0
-22 -24 0
-20 -25 0
-21 -23 0
-20 -27 0
-21 -28 0
-22 -26 0
-23 -28 0
-24 -26 0
-25 -27 0
-29 -17 0
-29 -20 0
-29 -21 0
-30 -18 0
-30 -22 0
-30 -23 0
-31 -19 0
-31 -24 0
-31 -25 0
-29 -30 0
-29 -31 0
-30 -31 0
32 29 30 31 0
-32 -29 0
-32 -30 0
-32 -31 0
-33 -36 0
-33 -37 0
-36 -37 0
-34 -38 0
-34 -39 0
-38 -39 0
-35 -40 0
-35 -41 0
-40 -41 0
-38 -40 0
-36 -41 0
-37 -39 0
-36 -43 0
-37 -44 0
-38 -42 0
-39 -44 0
-40 -42 0
-41 -43 0
-45 -33 0
-45 -36 0
-45 -37 0
-46 -34 0
-46 -38 0
-46 -39 0
-47 -35 0
-47 -40 0
-47 -41 0
-45 -46 0
-45 -47 0
-46 -47 0
48 45 46 47 0
-48 -45 0
-48 -46 0
-48 -47 0
-49 -52 0
-49 -53 0
-52 -53 0
-50 -54 0
-50 -55 0
-54 -55 0
-51 -56 0
-51 -57 0
-56 -57 0
-54 -56 0
-52 -57 0
-53 -55 0
-52 -59 0
-53 -60 0
-54 -58 0
-55 -60 0
-56 -58 0
-57 -59 0
-61 -49 0
-61 -52 0
-61 -53 0
-62 -50 0
-62 -54 0
-62 -55 0
-63 -51 0
-63 -56 0
-63 -57 0
-61 -62 0
-61 -63 0
-62 -63 0
64 61 62 63 0
-64 -61 0
-64 -62 0
-64 -63 0
-65 -68 0
-65 -69 0
-68 -69 0
-66 -70 0
-66 -71 0
-70 -71 0
-67 -72 0
-67 -73 0
-72 -73 0
-70 -72 0
-68 -73 0
-69 -71 0
-68 -75 0
-69 -76 0
-70 -74 0
-71 -76 0
-72 -74 0
-73 -75 0
-77 -65 0
-77 -68 0
-77 -69 0
-78 -66 0
-78 -70 0
-78 -71 0
-79 -67 0
-79 -72 0
-79 -73 0
-77 -78 0
-77 -79 0
-78 -79 0
80 77 78 79 0
-80 -77 0
-80 -78 0
-80 -79 0
81 82 83 84 85 86 87 88 89 90 91 92 93 94 95 96 97 98 0
-81 -82 0
-81 -83 0
-81 -84 0
-81 -85 0
-81 -86 0
-81 -87 0
-81 -88 0
-81 -89 0
-81 -90 0
-81 -91 0
-81 -92 0
-81 -93 0
-81 -94 0
-81 -95 0
-81 -96 0
-81 -97 0
-81 -98 0
-82 -83 0
-82 -84 0
-82 -85 0
-82 -86 0
-82 -87 0
-82 -88 0
-82 -89 0
-82 -90 0
-82 -91 0
-82 -92 0
-82 -93 0
-82 -94 0
-82 -95 0
-82 -96 0
-82 -97 0
-82 -98 0
-83 -84 0
-83 -85 0
-83 -86 0
-83 -87 0
-83 -88 0
-83 -89 0
-83 -90 0
-83 -91 0
-83 -92 0
-83 -93 0
-83 -94 0
-83 -95 0
-83 -96 0
-83 -97 0
-83 -98 0
-84 -85 0
-84 -86 0
-84 -87 0
-84 -88 0
-84 -89 0
-84 -90 0
-84 -91 0
-84 -92 0
-84 -93 0
-84 -94 0
-84 -95 0
-84 -96 0
-84 -97 0
-84 -98 0
-85 -86 0
-85 -87 0
-85 -88 0
-85 -89 0
-85 -90 0
-85 -91 0
-85 -92 0
-85 -93 0
-85 -94 0
-85 -95 0
-85 -96 0
-85 -97 0
-85 -98 0
-86 -87 0
-86 -88 0
-86 -89 0
-86 -90 0
-86 -91 0
-86 -92 0
-86 -93 0
-86 -94 0
-86 -95 0
-86 -96 0
-86 -97 0
-86 -98 0
-87 -88 0
-87 -89 0
-87 -90 0
-87 -91 0
-87 -92 0
-87 -93 0
-87 -94 0
-87 -95 0
-87 -96 0
-87 -97 0
-87 -98 0
-88 -89 0
-88 -90 0
-88 -91 0
-88 -92 0
-88 -93 0
-88 -94 0
-88 -95 0
-88 -96 0
-88 -97 0
-88 -98 0
-89 -90 0
-89 -91 0
-89 -92 0
-89 -93 0
-89 -94 0
-89 -95 0
-89 -96 0
-89 -97 0
-89 -98 0
-90 -91 0
-90 -92 0
-90 -93 0
-90 -94 0
-90 -95 0
-90 -96 0
-90 -97 0
-90 -98 0
-91 -92 0
-91 -93 0
-91 -94 0
-91 -95 0
-91 -96 0
-91 -97 0
-91 -98 0
-92 -93 0
-92 -94 0
-92 -95 0
-92 -96 0
-92 -97 0
-92 -98 0
-93 -94 0
-93 -95 0
-93 -96 0
-93 -97 0
-93 -98 0
-94 -95 0
-94 -96 0
-94 -97 0
-94 -98 0
-95 -96 0
-95 -97 0
-95 -98 0
-96 -97 0
-96 -98 0
-97 -98 0
-81 16 0
-81 10 0
-81 1 0
-81 29 0
-81 -32 0
-81 -17 0
-81 -2 18 0
-81 2 -18 0
-81 -3 19 0
-81 3 -19 0
-81 -4 20 0
-81 4 -20 0
-81 -5 21 0
-81 5 -21 0
-81 -6 22 0
-81 6 -22 0
-81 -7 23 0
-81 7 -23 0
-81 -8 24 0
-81 8 -24 0
-81 -9 25 0
-81 9 -25 0
-81 -10 26 0
-81 10 -26 0
-81 -11 27 0
-81 11 -27 0
-81 -12 28 0
-81 12 -28 0
-81 -14 30 0
-81 14 -30 0
-81 -15 31 0
-81 15 -31 0
-82 13 0
-82 32 0
-82 17 0
-82 26 0
-82 -29 0
-82 -2 18 0
-82 2 -18 0
-82 -3 19 0
-82 3 -19 0
-82 -4 20 0
-82 4 -20 0
-82 -5 21 0
-82 5 -21 0
-82 -6 22 0
-82 6 -22 0
-82 -7 23 0
-82 7 -23 0
-82 -8 24 0
-82 8 -24 0
-82 -9 25 0
-82 9 -25 0
-82 -11 27 0
-82 11 -27 0
-82 -12 28 0
-82 12 -28 0
-82 -14 30 0
-82 14 -30 0
-82 -15 31 0
-82 15 -31 0
-83 16 0
-83 11 0
-83 2 0
-83 30 0
-83 -32 0
-83 -18 0
-83 -1 17 0
-83 1 -17 0
-83 -3 19 0
-83 3 -19 0
-83 -4 20 0
-83 4 -20 0
-83 -5 21 0
-83 5 -21 0
-83 -6 22 0
-83 6 -22 0
-83 -7 23 0
-83 7 -23 0
-83 -8 24 0
-83 8 -24 0
-83 -9 25 0
-83 9 -25 0
-83 -10 26 0
-83 10 -26 0
-83 -11 27 0
-83 11 -27 0
-83 -12 28 0
-83 12 -28 0
-83 -13 29 0
-83 13 -29 0
-83 -15 31 0
-83 15 -31 0
-84 14 0
-84 32 0
-84 18 0
-84 27 0
-84 -30 0
-84 -1 17 0
-84 1 -17 0
-84 -3 19 0
-84 3 -19 0
-84 -4 20 0
-84 4 -20 0
-84 -5 21 0
-84 5 -21 0
-84 -6 22 0
-84 6 -22 0
-84 -7 23 0
-84 7 -23 0
-84 -8 24 0
-84 8 -24 0
-84 -9 25 0
-84 9 -25 0
-84 -10 26 0
-84 10 -26 0
-84 -12 28 0
-84 12 -28 0
-84 -13 29 0
-84 13 -29 0
-84 -15 31 0
-84 15 -31 0
-85 16 0
-85 12 0
-85 3 0
-85 31 0
-85 -19 0
-85 -32 0
-85 -1 17 0
-85 1 -17 0
-85 -2 18 0
-85 2 -18 0
-85 -4 20 0
-85 4 -20 0
-85 -5 21 0
-85 5 -21 0
-85 -6 22 0
-85 6 -22 0
-85 -7 23 0
-85 7 -23 0
-85 -8 24 0
-85 8 -24 0
-85 -9 25 0
-85 9 -25 0
-85 -10 26 0
-85 10 -26 0
-85 -11 27 0
-85 11 -27 0
-85 -12 28 0
-85 12 -28 0
-85 -13 29 0
-85 13 -29 0
-85 -14 30 0
-85 14 -30 0
-86 15 0
-86 19 0
-86 32 0
-86 28 0
-86 -31 0
-86 -1 17 0
-86 1 -17 0
-86 -2 18 0
-86 2 -18 0
-86 -4 20 0
-86 4 -20 0
-86 -5 21 0
-86 5 -21 0
-86 -6 22 0
-86 6 -22 0
-86 -7 23 0
-86 7 -23 0
-86 -8 24 0
-86 8 -24 0
-86 -9 25 0
-86 9 -25 0
-86 -10 26 0
-86 10 -26 0
-86 -11 27 0
-86 11 -27 0
-86 -13 29 0
-86 13 -29 0
-86 -14 30 0
-86 14 -30 0
-87 13 0
-87 11 0
-87 32 0
-87 20 0
-87 -27 0
-87 -29 0
-87 -1 17 0
-87 1 -17 0
-87 -2 18 0
-87 2 -18 0
-87 -3 19 0
-87 3 -19 0
-87 -5 21 0
-87 5 -21 0
-87 -6 22 0
-87 6 -22 0
-87 -7 23 0
-87 7 -23 0
-87 -8 24 0
-87 8 -24 0
-87 -9 25 0
-87 9 -25 0
-87 -10 26 0
-87 10 -26 0
-87 -12 28 0
-87 12 -28 0
-87 -14 30 0
-87 14 -30 0
-87 -15 31 0
-87 15 -31 0
-88 16 0
-88 4 0
-88 10 0
-88 27 0
-88 29 0
-88 -32 0
-88 -20 0
-88 -1 17 0
-88 1 -17 0
-88 -2 18 0
-88 2 -18 0
-88 -3 19 0
-88 3 -19 0
-88 -5 21 0
-88 5 -21 0
-88 -6 22 0
-88 6 -22 0
-88 -7 23 0
-88 7 -23 0
-88 -8 24 0
-88 8 -24 0
-88 -9 25 0
-88 9 -25 0
-88 -10 26 0
-88 10 -26 0
-88 -12 28 0
-88 12 -28 0
-88 -14 30 0
-88 14 -30 0
-88 -15 31 0
-88 15 -31 0
-89 13 0
-89 12 0
-89 32 0
-89 21 0
-89 -28 0
-89 -29 0
-89 -1 17 0
-89 1 -17 0
-89 -2 18 0
-89 2 -18 0
-89 -3 19 0
-89 3 -19 0
-89 -4 20 0
-89 4 -20 0
-89 -6 22 0
-89 6 -22 0
-89 -7 23 0
-89 7 -23 0
-89 -8 24 0
-89 8 -24 0
-89 -9 25 0
-89 9 -25 0
-89 -10 26 0
-89 10 -26 0
-89 -11 27 0
-89 11 -27 0
-89 -14 30 0
-89 14 -30 0
-89 -15 31 0
-89 15 -31 0
-90 16 0
-90 5 0
-90 10 0
-90 28 0
-90 29 0
-90 -32 0
-90 -21 0
-90 -1 17 0
-90 1 -17 0
-90 -2 18 0
-90 2 -18 0
-90 -3 19 0
-90 3 -19 0
-90 -4 20 0
-90 4 -20 0
-90 -6 22 0
-90 6 -22 0
-90 -7 23 0
-90 7 -23 0
-90 -8 24 0
-90 8 -24 0
-90 -9 25 0
-90 9 -25 0
-90 -10 26 0
-90 10 -26 0
-90 -11 27 0
-90 11 -27 0
-90 -14 30 0
-90 14 -30 0
-90 -15 31 0
-90 15 -31 0
-91 14 0
-91 10 0
-91 22 0
-91 32 0
-91 -30 0
-91 -26 0
-91 -1 17 0
-91 1 -17 0
-91 -2 18 0
-91 2 -18 0
-91 -3 19 0
-91 3 -19 0
-91 -4 20 0
-91 4 -20 0
-91 -5 21 0
-91 5 -21 0
-91 -7 23 0
-91 7 -23 0
-91 -8 24 0
-91 8 -24 0
-91 -9 25 0
-91 9 -25 0
-91 -11 27 0
-91 11 -27 0
-91 -12 28 0
-91 12 -28 0
-91 -13 29 0
-91 13 -29 0
-91 -15 31 0
-91 15 -31 0
-92 16 0
-92 6 0
-92 11 0
-92 30 0
-92 26 0
-92 -22 0
-92 -32 0
-92 -1 17 0
-92 1 -17 0
-92 -2 18 0
-92 2 -18 0
-92 -3 19 0
-92 3 -19 0
-92 -4 20 0
-92 4 -20 0
-92 -5 21 0
-92 5 -21 0
-92 -7 23 0
-92 7 -23 0
-92 -8 24 0
-92 8 -24 0
-92 -9 25 0
-92 9 -25 0
-92 -11 27 0
-92 11 -27 0
-92 -12 28 0
-92 12 -28 0
-92 -13 29 0
-92 13 -29 0
-92 -15 31 0
-92 15 -31 0
-93 14 0
-93 12 0
-93 23 0
-93 32 0
-93 -28 0
-93 -30 0
-93 -1 17 0
-93 1 -17 0
-93 -2 18 0
-93 2 -18 0
-93 -3 19 0
-93 3 -19 0
-93 -4 20 0
-93 4 -20 0
-93 -5 21 0
-93 5 -21 0
-93 -6 22 0
-93 6 -22 0
-93 -8 24 0
-93 8 -24 0
-93 -9 25 0
-93 9 -25 0
-93 -10 26 0
-93 10 -26 0
-93 -11 27 0
-93 11 -27 0
-93 -13 29 0
-93 13 -29 0
-93 -15 31 0
-93 15 -31 0
-94 16 0
-94 7 0
-94 11 0
-94 28 0
-94 30 0
-94 -32 0
-94 -23 0
-94 -1 17 0
-94 1 -17 0
-94 -2 18 0
-94 2 -18 0
-94 -3 19 0
-94 3 -19 0
-94 -4 20 0
-94 4 -20 0
-94 -5 21 0
-94 5 -21 0
-94 -6 22 0
-94 6 -22 0
-94 -8 24 0
-94 8 -24 0
-94 -9 25 0
-94 9 -25 0
-94 -10 26 0
-94 10 -26 0
-94 -11 27 0
-94 11 -27 0
-94 -13 29 0
-94 13 -29 0
-94 -15 31 0
-94 15 -31 0
-95 15 0
-95 10 0
-95 32 0
-95 24 0
-95 -31 0
-95 -26 0
-95 -1 17 0
-95 1 -17 0
-95 -2 18 0
-95 2 -18 0
-95 -3 19 0
-95 3 -19 0
-95 -4 20 0
-95 4 -20 0
-95 -5 21 0
-95 5 -21 0
-95 -6 22 0
-95 6 -22 0
-95 -7 23 0
-95 7 -23 0
-95 -9 25 0
-95 9 -25 0
-95 -11 27 0
-95 11 -27 0
-95 -12 28 0
-95 12 -28 0
-95 -13 29 0
-95 13 -29 0
-95 -14 30 0
-95 14 -30 0
-96 16 0
-96 8 0
-96 12 0
-96 31 0
-96 26 0
-96 -32 0
-96 -24 0
-96 -1 17 0
-96 1 -17 0
-96 -2 18 0
-96 2 -18 0
-96 -3 19 0
-96 3 -19 0
-96 -4 20 0
-96 4 -20 0
-96 -5 21 0
-96 5 -21 0
-96 -6 22 0
-96 6 -22 0
-96 -7 23 0
-96 7 -23 0
-96 -9 25 0
-96 9 -25 0
-96 -11 27 0
-96 11 -27 0
-96 -12 28 0
-96 12 -28 0
-96 -13 29 0
-96 13 -29 0
-96 -14 30 0
-96 14 -30 0
-97 15 0
-97 11 0
-97 25 0
-97 32 0
-97 -31 0
-97 -27 0
-97 -1 17 0
-97 1 -17 0
-97 -2 18 0
-97 2 -18 0
-97 -3 19 0
-97 3 -19 0
-97 -4 20 0
-97 4 -20 0
-97 -5 21 0
-97 5 -21 0
-97 -6 22 0
-97 6 -22 0
-97 -7 23 0
-97 7 -23 0
-97 -8 24 0
-97 8 -24 0
-97 -10 26 0
-97 10 -26 0
-97 -12 28 0
-97 12 -28 0
-97 -13 29 0
-97 13 -29 0
-97 -14 30 0
-97 14 -30 0
-98 16 0
-98 9 0
-98 12 0
-98 31 0
-98 27 0
-98 -25 0
-98 -32 0
-98 -1 17 0
-98 1 -17 0
-98 -2 18 0
-98 2 -18 0
-98 -3 19 0
-98 3 -19 0
-98 -4 20 0
-98 4 -20 0
-98 -5 21 0
-98 5 -21 0
-98 -6 22 0
-98 6 -22 0
-98 -7 23 0
-98 7 -23 0
-98 -8 24 0
-98 8 -24 0
-98 -10 26 0
-98 10 -26 0
-98 -12 28 0
-98 12 -28 0
-98 -13 29 0
-98 13 -29 0
-98 -14 30 0
-98 14 -30 0
99 100 101 102 103 104 105 106 107 108 109 110 111 112 113 114 115 116 0
-99 -100 0
-99 -101 0
-99 -102 0
-99 -103 0
-99 -104 0
-99 -105 0
-99 -106 0
-99 -107 0
-99 -108 0
-99 -109 0
-99 -110 0
-99 -111 0
-99 -112 0
-99 -113 0
-99 -114 0
-99 -115 0
-99 -116 0
-100 -101 0
-100 -102 0
-100 -103 0
-100 -104 0
-100 -105 0
-100 -106 0
-100 -107 0
-100 -108 0
-100 -109 0
-100 -110 0
-100 -111 0
-100 -112 0
-100 -113 0
-100 -114 0
-100 -115 0
-100 -116 0
-101 -102 0
-101 -103 0
-101 -104 0
-101 -105 0
-101 -106 0
-101 -107 0
-101 -108 0
-101 -109 0
-101 -110 0
-101 -111 0
-101 -112 0
-101 -113 0
-101 -114 0
-101 -115 0
-101 -116 0
-102 -103 0
-102 -104 0
-102 -105 0
-102 -106 0
-102 -107 0
-102 -108 0
-102 -109 0
-102 -110 0
-102 -111 0
-102 -112 0
-102 -113 0
-102 -114 0
-102 -115 0
-102 -116 0
-103 -104 0
-103 -105 0
-103 -106 0
-103 -107 0
-103 -108 0
-103 -109 0
-103 -110 0
-103 -111 0
-103 -112 0
-103 -113 0
-103 -114 0
-103 -115 0
-103 -116 0
-104 -105 0
-104 -106 0
-104 -107 0
-104 -108 0
-104 -109 0
-104 -110 0
-104 -111 0
-104 -112 0
-104 -113 0
-104 -114 0
-104 -115 0
-104 -116 0
-105 -106 0
-105 -107 0
-105 -108 0
-105 -109 0
-105 -110 0
-105 -111 0
-105 -112 0
-105 -113 0
-105 -114 0
-105 -115 0
-105 -116 0
-106 -107 0
-106 -108 0
-106 -109 0
-106 -110 0
-106 -111 0
-106 -112 0
-106 -113 0
-106 -114 0
-106 -115 0
-106 -116 0
-107 -108 0
-107 -109 0
-107 -110 0
-107 -111 0
-107 -112 0
-107 -113 0
-107 -114 0
-107 -115 0
-107 -116 0
-108 -109 0
-108 -110 0
-108 -111 0
-108 -112 0
-108 -113 0
-108 -114 0
-108 -115 0
-108 -116 0
-109 -110 0
-109 -111 0
-109 -112 0
-109 -113 0
-109 -114 0
-109 -115 0
-109 -116 0
-110 -111 0
-110 -112 0
-110 -113 0
-110 -114 0
-110 -115 0
-110 -116 0
-111 -112 0
-111 -113 0
-111 -114 0
-111 -115 0
-111 -116 0
-112 -113 0
-112 -114 0
-112 -115 0
-112 -116 0
-113 -114 0
-113 -115 0
-113 -116 0
-114 -115 0
-114 -116 0
-115 -116 0
-99 32 0
-99 26 0
-99 17 0
-99 45 0
-99 -48 0
-99 -33 0
-99 -18 34 0
-99 18 -34 0
-99 -19 35 0
-99 19 -35 0
-99 -20 36 0
-99 20 -36 0
-99 -21 37 0
-99 21 -37 0
-99 -22 38 0
-99 22 -38 0
-99 -23 39 0
-99 23 -39 0
-99 -24 40 0
-99 24 -40 0
-99 -25 41 0
-99 25 -41 0
-99 -26 42 0
-99 26 -42 0
-99 -27 43 0
-99 27 -43 0
-99 -28 44 0
-99 28 -44 0
-99 -30 46 0
-99 30 -46 0
-99 -31 47 0
-99 31 -47 0
-100 29 0
-100 48 0
-100 33 0
-100 42 0
-100 -45 0
-100 -18 34 0
-100 18 -34 0
-100 -19 35 0
-100 19 -35 0
-100 -20 36 0
-100 20 -36 0
-100 -21 37 0
-100 21 -37 0
-100 -22 38 0
-100 22 -38 0
-100 -23 39 0
-100 23 -39 0
-100 -24 40 0
-100 24 -40 0
-100 -25 41 0
-100 25 -41 0
-100 -27 43 0
-100 27 -43 0
-100 -28 44 0
-100 28 -44 0
-100 -30 46 0
-100 30 -46 0
-100 -31 47 0
-100 31 -47 0
-101 32 0
-101 27 0
-101 18 0
-101 46 0
-101 -48 0
-101 -34 0
-101 -17 33 0
-101 17 -33 0
-101 -19 35 0
-101 19 -35 0
-101 -20 36 0
-101 20 -36 0
-101 -21 37 0
-101 21 -37 0
-101 -22 38 0
-101 22 -38 0
-101 -23 39 0
-101 23 -39 0
-101 -24 40 0
-101 24 -40 0
-101 -25 41 0
-101 25 -41 0
-101 -26 42 0
-101 26 -42 0
-101 -27 43 0
-101 27 -43 0
-101 -28 44 0
-101 28 -44 0
-101 -29 45 0
-101 29 -45 0
-101 -31 47 0
-101 31 -47 0
-102 30 0
-102 48 0
-102 34 0
-102 43 0
-102 -46 0
-102 -17 33 0
-102 17 -33 0
-102 -19 35 0
-102 19 -35 0
-102 -20 36 0
-102 20 -36 0
-102 -21 37 0
-102 21 -37 0
-102 -22 38 0
-102 22 -38 0
-102 -23 39 0
-102 23 -39 0
-102 -24 40 0
-102 24 -40 0
-102 -25 41 0
-102 25 -41 0
-102 -26 42 0
-102 26 -42 0
-102 -28 44 0
-102 28 -44 0
-102 -29 45 0
-102 29 -45 0
-102 -31 47 0
-102 31 -47 0
-103 32 0
-103 28 0
-103 19 0
-103 47 0
-103 -35 0
-103 -48 0
-103 -17 33 0
-103 17 -33 0
-103 -18 34 0
-103 18 -34 0
-103 -20 36 0
-103 20 -36 0
-103 -21 37 0
-103 21 -37 0
-103 -22 38 0
-103 22 -38 0
-103 -23 39 0
-103 23 -39 0
-103 -24 40 0
-103 24 -40 0
-103 -25 41 0
-103 25 -41 0
-103 -26 42 0
-103 26 -42 0
-103 -27 43 0
-103 27 -43 0
-103 -28 44 0
-103 28 -44 0
-103 -29 45 0
-103 29 -45 0
-103 -30 46 0
-103 30 -46 0
-104 31 0
-104 35 0
-104 48 0
-104 44 0
-104 -47 0
-104 -17 33 0
-104 17 -33 0
-104 -18 34 0
-104 18 -34 0
-104 -20 36 0
-104 20 -36 0
-104 -21 37 0
-104 21 -37 0
-104 -22 38 0
-104 22 -38 0
-104 -23 39 0
-104 23 -39 0
-104 -24 40 0
-104 24 -40 0
-104 -25 41 0
-104 25 -41 0
-104 -26 42 0
-104 26 -42 0
-104 -27 43 0
-104 27 -43 0
-104 -29 45 0
-104 29 -45 0
-104 -30 46 0
-104 30 -46 0
-105 29 0
-105 27 0
-105 48 0
-105 36 0
-105 -43 0
-105 -45 0
-105 -17 33 0
-105 17 -33 0
-105 -18 34 0
-105 18 -34 0
-105 -19 35 0
-105 19 -35 0
-105 -21 37 0
-105 21 -37 0
-105 -22 38 0
-105 22 -38 0
-105 -23 39 0
-105 23 -39 0
-105 -24 40 0
-105 24 -40 0
-105 -25 41 0
-105 25 -41 0
-105 -26 42 0
-105 26 -42 0
-105 -28 44 0
-105 28 -44 0
-105 -30 46 0
-105 30 -46 0
-105 -31 47 0
-105 31 -47 0
-106 32 0
-106 20 0
-106 26 0
-106 43 0
-106 45 0
-106 -48 0
-106 -36 0
-106 -17 33 0
-106 17 -33 0
-106 -18 34 0
-106 18 -34 0
-106 -19 35 0
-106 19 -35 0
-106 -21 37 0
-106 21 -37 0
-106 -22 38 0
-106 22 -38 0
-106 -23 39 0
-106 23 -39 0
-106 -24 40 0
-106 24 -40 0
-106 -25 41 0
-106 25 -41 0
-106 -26 42 0
-106 26 -42 0
-106 -28 44 0
-106 28 -44 0
-106 -30 46 0
-106 30 -46 0
-106 -31 47 0
-106 31 -47 0
-107 29 0
-107 28 0
-107 48 0
-107 37 0
-107 -44 0
-107 -45 0
-107 -17 33 0
-107 17 -33 0
-107 -18 34 0
-107 18 -34 0
-107 -19 35 0
-107 19 -35 0
-107 -20 36 0
-107 20 -36 0
-107 -22 38 0
-107 22 -38 0
-107 -23 39 0
-107 23 -39 0
-107 -24 40 0
-107 24 -40 0
-107 -25 41 0
-107 25 -41 0
-107 -26 42 0
-107 26 -42 0
-107 -27 43 0
-107 27 -43 0
-107 -30 46 0
-107 30 -46 0
-107 -31 47 0
-107 31 -47 0
-108 32 0
-108 21 0
-108 26 0
-108 44 0
-108 45 0
-108 -48 0
-108 -37 0
-108 -17 33 0
-108 17 -33 0
-108 -18 34 0
-108 18 -34 0
-108 -19 35 0
-108 19 -35 0
-108 -20 36 0
-108 20 -36 0
-108 -22 38 0
-108 22 -38 0
-108 -23 39 0
-108 23 -39 0
-108 -24 40 0
-108 24 -40 0
-108 -25 41 0
-108 25 -41 0
-108 -26 42 0
-108 26 -42 0
-108 -27 43 0
-108 27 -43 0
-108 -30 46 0
-108 30 -46 0
-108 -31 47 0
-108 31 -47 0
-109 30 0
-109 26 0
-109 38 0
-109 48 0
-109 -46 0
-109 -42 0
-109 -17 33 0
-109 17 -33 0
-109 -18 34 0
-109 18 -34 0
-109 -19 35 0
-109 19 -35 0
-109 -20 36 0
-109 20 -36 0
-109 -21 37 0
-109 21 -37 0
-109 -23 39 0
-109 23 -39 0
-109 -24 40 0
-109 24 -40 0
-109 -25 41 0
-109 25 -41 0
-109 -27 43 0
-109 27 -43 0
-109 -28 44 0
-109 28 -44 0
-109 -29 45 0
-109 29 -45 0
-109 -31 47 0
-109 31 -47 0
-110 32 0
-110 22 0
-110 27 0
-110 46 0
-110 42 0
-110 -38 0
-110 -48 0
-110 -17 33 0
-110 17 -33 0
-110 -18 34 0
-110 18 -34 0
-110 -19 35 0
-110 19 -35 0
-110 -20 36 0
-110 20 -36 0
-110 -21 37 0
-110 21 -37 0
-110 -23 39 0
-110 23 -39 0
-110 -24 40 0
-110 24 -40 0
-110 -25 41 0
-110 25 -41 0
-110 -27 43 0
-110 27 -43 0
-110 -28 44 0
-110 28 -44 0
-110 -29 45 0
-110 29 -45 0
-110 -31 47 0
-110 31 -47 0
-111 30 0
-111 28 0
-111 39 0
-111 48 0
-111 -44 0
-111 -46 0
-111 -17 33 0
-111 17 -33 0
-111 -18 34 0
-111 18 -34 0
-111 -19 35 0
-111 19 -35 0
-111 -20 36 0
-111 20 -36 0
-111 -21 37 0
-111 21 -37 0
-111 -22 38 0
-111 22 -38 0
-111 -24 40 0
-111 24 -40 0
-111 -25 41 0
-111 25 -41 0
-111 -26 42 0
-111 26 -42 0
-111 -27 43 0
-111 27 -43 0
-111 -29 45 0
-111 29 -45 0
-111 -31 47 0
-111 31 -47 0
-112 32 0
-112 23 0
-112 27 0
-112 44 0
-112 46 0
-112 -48 0
-112 -39 0
-112 -17 33 0
-112 17 -33 0
-112 -18 34 0
-112 18 -34 0
-112 -19 35 0
-112 19 -35 0
-112 -20 36 0
-112 20 -36 0
-112 -21 37 0
-112 21 -37 0
-112 -22 38 0
-112 22 -38 0
-112 -24 40 0
-112 24 -40 0
-112 -25 41 0
-112 25 -41 0
-112 -26 42 0
-112 26 -42 0
-112 -27 43 0
-112 27 -43 0
-112 -29 45 0
-112 29 -45 0
-112 -31 47 0
-112 31 -47 0
-113 31 0
-113 26 0
-113 48 0
-113 40 0
-113 -47 0
-113 -42 0
-113 -17 33 0
-113 17 -33 0
-113 -18 34 0
-113 18 -34 0
-113 -19 35 0
-113 19 -35 0
-113 -20 36 0
-113 20 -36 0
-113 -21 37 0
-113 21 -37 0
-113 -22 38 0
-113 22 -38 0
-113 -23 39 0
-113 23 -39 0
-113 -25 41 0
-113 25 -41 0
-113 -27 43 0
-113 27 -43 0
-113 -28 44 0
-113 28 -44 0
-113 -29 45 0
-113 29 -45 0
-113 -30 46 0
-113 30 -46 0
-114 32 0
-114 24 0
-114 28 0
-114 47 0
-114 42 0
-114 -48 0
-114 -40 0
-114 -17 33 0
-114 17 -33 0
-114 -18 34 0
-114 18 -34 0
-114 -19 35 0
-114 19 -35 0
-114 -20 36 0
-114 20 -36 0
-114 -21 37 0
-114 21 -37 0
-114 -22 38 0
-114 22 -38 0
-114 -23 39 0
-114 23 -39 0
-114 -25 41 0
-114 25 -41 0
-114 -27 43 0
-114 27 -43 0
-114 -28 44 0
-114 28 -44 0
-114 -29 45 0
-114 29 -45 0
-114 -30 46 0
-114 30 -46 0
-115 31 0
-115 27 0
-115 41 0
-115 48 0
-115 -47 0
-115 -43 0
-115 -17 33 0
-115 17 -33 0
-115 -18 34 0
-115 18 -34 0
-115 -19 35 0
-115 19 -35 0
-115 -20 36 0
-115 20 -36 0
-115 -21 37 0
-115 21 -37 0
-115 -22 38 0
-115 22 -38 0
-115 -23 39 0
-115 23 -39 0
-115 -24 40 0
-115 24 -40 0
-115 -26 42 0
-115 26 -42 0
-115 -28 44 0
-115 28 -44 0
-115 -29 45 0
-115 29 -45 0
-115 -30 46 0
-115 30 -46 0
-116 32 0
-116 25 0
-116 28 0
-116 47 0
-116 43 0
-116 -41 0
-116 -48 0
-116 -17 33 0
-116 17 -33 0
-116 -18 34 0
-116 18 -34 0
-116 -19 35 0
-116 19 -35 0
-116 -20 36 0
-116 20 -36 0
-116 -21 37 0
-116 21 -37 0
-116 -22 38 0
-116 22 -38 0
-116 -23 39 0
-116 23 -39 0
-116 -24 40 0
-116 24 -40 0
-116 -26 42 0
-116 26 -42 0
-116 -28 44 0
-116 28 -44 0
-116 -29 45 0
-116 29 -45 0
-116 -30 46 0
-116 30 -46 0
117 118 119 120 121 122 123 124 125 126 127 128 129 130 131 132 133 134 0
-117 -118 0
-117 -119 0
-117 -120 0
-117 -121 0
-117 -122 0
-117 -123 0
-117 -124 0
-117 -125 0
-117 -126 0
-117 -127 0
-117 -128 0
-117 -129 0
-117 -130 0
-117 -131 0
-117 -132 0
-117 -133 0
-117 -134 0
-118 -119 0
-118 -120 0
-118 -121 0
-118 -122 0
-118 -123 0
-118 -124 0
-118 -125 0
-118 -126 0
-118 -127 0
-118 -128 0
-118 -129 0
-118 -130 0
-118 -131 0
-118 -132 0
-118 -133 0
-118 -134 0
-119 -120 0
-119 -121 0
-119 -122 0
-119 -123 0
-119 -124 0
-119 -125 0
-119 -126 0
-119 -127 0
-119 -128 0
-119 -129 0
-119 -130 0
-119 -131 0
-119 -132 0
-119 -133 0
-119 -134 0
-120 -121 0
-120 -122 0
-120 -123 0
-120 -124 0
-120 -125 0
-120 -126 0
-120 -127 0
-120 -128 0
-120 -129 0
-120 -130 0
-120 -131 0
-120 -132 0
-120 -133 0
-120 -134 0
-121 -122 0
-121 -123 0
-121 -124 0
-121 -125 0
-121 -126 0
-121 -127 0
-121 -128 0
-121 -129 0
-121 -130 0
-121 -131 0
-121 -132 0
-121 -133 0
-121 -134 0
-122 -123 0
-122 -124 0
-122 -125 0
-122 -126 0
-122 -127 0
-122 -128 0
-122 -129 0
-122 -130 0
-122 -131 0
-122 -132 0
-122 -133 0
-122 -134 0
-123 -124 0
-123 -125 0
-123 -126 0
-123 -127 0
-123 -128 0
-123 -129 0
-123 -130 0
-123 -131 0
-123 -132 0
-123 -133 0
-123 -134 0
-124 -125 0
-124 -126 0
-124 -127 0
-124 -128 0
-124 -129 0
-124 -130 0
-124 -131 0
-124 -132 0
-124 -133 0
-124 -134 0
-125 -126 0
-125 -127 0
-125 -128 0
-125 -129 0
-125 -130 0
-125 -131 0
-125 -132 0
-125 -133 0
-125 -134 0
-126 -127 0
-126 -128 0
-126 -129 0
-126 -130 0
-126 -131 0
-126 -132 0
-126 -133 0
-126 -134 0
-127 -128 0
-127 -129 0
-127 -130 0
-127 -131 0
-127 -132 0
-127 -133 0
-127 -134 0
-128 -129 0
-128 -130 0
-128 -131 0
-128 -132 0
-128 -133 0
-128 -134 0
-129 -130 0
-129 -131 0
-129 -132 0
-129 -133 0
-129 -134 0
-130 -131 0
-130 -132 0
-130 -133 0
-130 -134 0
-131 -132 0
-131 -133 0
-131 -134 0
-132 -133 0
-132 -134 0
-133 -134 0
-117 48 0
-117 42 0
-117 33 0
-117 61 0
-117 -64 0
-117 -49 0
-117 -34 50 0
-117 34 -50 0
-117 -35 51 0
-117 35 -51 0
-117 -36 52 0
-117 36 -52 0
-117 -37 53 0
-117 37 -53 0
-117 -38 54 0
-117 38 -54 0
-117 -39 55 0
-117 39 -55 0
-117 -40 56 0
-117 40 -56 0
-117 -41 57 0
-117 41 -57 0
-117 -42 58 0
-117 42 -58 0
-117 -43 59 0
-117 43 -59 0
-117 -44 60 0
-117 44 -60 0
-117 -46 62 0
-117 46 -62 0
-117 -47 63 0
-117 47 -63 0
-118 45 0
-118 64 0
-118 49 0
-118 58 0
-118 -61 0
-118 -34 50 0
-118 34 -50 0
-118 -35 51 0
-118 35 -51 0
-118 -36 52 0
-118 36 -52 0
-118 -37 53 0
-118 37 -53 0
-118 -38 54 0
-118 38 -54 0
-118 -39 55 0
-118 39 -55 0
-118 -40 56 0
-118 40 -56 0
-118 -41 57 0
-118 41 -57 0
-118 -43 59 0
-118 43 -59 0
-118 -44 60 0
-118 44 -60 0
-118 -46 62 0
-118 46 -62 0
-118 -47 63 0
-118 47 -63 0
-119 48 0
-119 43 0
-119 34 0
-119 62 0
-119 -64 0
-119 -50 0
-119 -33 49 0
-119 33 -49 0
-119 -35 51 0
-119 35 -51 0
-119 -36 52 0
-119 36 -52 0
-119 -37 53 0
-119 37 -53 0
-119 -38 54 0
-119 38 -54 0
-119 -39 55 0
-119 39 -55 0
-119 -40 56 0
-119 40 -56 0
-119 -41 57 0
-119 41 -57 0
-119 -42 58 0
-119 42 -58 0
-119 -43 59 0
-119 43 -59 0
-119 -44 60 0
-119 44 -60 0
-119 -45 61 0
-119 45 -61 0
-119 -47 63 0
-119 47 -63 0
-120 46 0
-120 64 0
-120 50 0
-120 59 0
-120 -62 0
-120 -33 49 0
-120 33 -49 0
-120 -35 51 0
-120 35 -51 0
-120 -36 52 0
-120 36 -52 0
-120 -37 53 0
-120 37 -53 0
-120 -38 54 0
-120 38 -54 0
-120 -39 55 0
-120 39 -55 0
-120 -40 56 0
-120 40 -56 0
-120 -41 57 0
-120 41 -57 0
-120 -42 58 0
-120 42 -58 0
-120 -44 60 0
-120 44 -60 0
-120 -45 61 0
-120 45 -61 0
-120 -47 63 0
-120 47 -63 0
-121 48 0
-121 44 0
-121 35 0
-121 63 0
-121 -51 0
-121 -64 0
-121 -33 49 0
-121 33 -49 0
-121 -34 50 0
-121 34 -50 0
-121 -36 52 0
-121 36 -52 0
-121 -37 53 0
-121 37 -53 0
-121 -38 54 0
-121 38 -54 0
-121 -39 55 0
-121 39 -55 0
-121 -40 56 0
-121 40 -56 0
-121 -41 57 0
-121 41 -57 0
-121 -42 58 0
-121 42 -58 0
-121 -43 59 0
-121 43 -59 0
-121 -44 60 0
-121 44 -60 0
-121 -45 61 0
-121 45 -61 0
-121 -46 62 0
-121 46 -62 0
-122 47 0
-122 51 0
-122 64 0
-122 60 0
-122 -63 0
-122 -33 49 0
-122 33 -49 0
-122 -34 50 0
-122 34 -50 0
-122 -36 52 0
-122 36 -52 0
-122 -37 53 0
-122 37 -53 0
-122 -38 54 0
-122 38 -54 0
-122 -39 55 0
-122 39 -55 0
-122 -40 56 0
-122 40 -56 0
-122 -41 57 0
-122 41 -57 0
-122 -42 58 0
-122 42 -58 0
-122 -43 59 0
-122 43 -59 0
-122 -45 61 0
-122 45 -61 0
-122 -46 62 0
-122 46 -62 0
-123 45 0
-123 43 0
-123 64 0
-123 52 0
-123 -59 0
-123 -61 0
-123 -33 49 0
-123 33 -49 0
-123 -34 50 0
-123 34 -50 0
-123 -35 51 0
-123 35 -51 0
-123 -37 53 0
-123 37 -53 0
-123 -38 54 0
-123 38 -54 0
-123 -39 55 0
-123 39 -55 0
-123 -40 56 0
-123 40 -56 0
-123 -41 57 0
-123 41 -57 0
-123 -42 58 0
-123 42 -58 0
-123 -44 60 0
-123 44 -60 0
-123 -46 62 0
-123 46 -62 0
-123 -47 63 0
-123 47 -63 0
-124 48 0
-124 36 0
-124 42 0
-124 59 0
-124 61 0
-124 -64 0
-124 -52 0
-124 -33 49 0
-124 33 -49 0
-124 -34 50 0
-124 34 -50 0
-124 -35 51 0
-124 35 -51 0
-124 -37 53 0
-124 37 -53 0
-124 -38 54 0
-124 38 -54 0
-124 -39 55 0
-124 39 -55 0
-124 -40 56 0
-124 40 -56 0
-124 -41 57 0
-124 41 -57 0
-124 -42 58 0
-124 42 -58 0
-124 -44 60 0
-124 44 -60 0
-124 -46 62 0
-124 46 -62 0
-124 -47 63 0
-124 47 -63 0
-125 45 0
-125 44 0
-125 64 0
-125 53 0
-125 -60 0
-125 -61 0
-125 -33 49 0
-125 33 -49 0
-125 -34 50 0
-125 34 -50 0
-125 -35 51 0
-125 35 -51 0
-125 -36 52 0
-125 36 -52 0
-125 -38 54 0
-125 38 -54 0
-125 -39 55 0
-125 39 -55 0
-125 -40 56 0
-125 40 -56 0
-125 -41 57 0
-125 41 -57 0
-125 -42 58 0
-125 42 -58 0
-125 -43 59 0
-125 43 -59 0
-125 -46 62 0
-125 46 -62 0
-125 -47 63 0
-125 47 -63 0
-126 48 0
-126 37 0
-126 42 0
-126 60 0
-126 61 0
-126 -64 0
-126 -53 0
-126 -33 49 0
-126 33 -49 0
-126 -34 50 0
-126 34 -50 0
-126 -35 51 0
-126 35 -51 0
-126 -36 52 0
-126 36 -52 0
-126 -38 54 0
-126 38 -54 0
-126 -39 55 0
-126 39 -55 0
-126 -40 56 0
-126 40 -56 0
-126 -41 57 0
-126 41 -57 0
-126 -42 58 0
-126 42 -58 0
-126 -43 59 0
-126 43 -59 0
-126 -46 62 0
-126 46 -62 0
-126 -47 63 0
-126 47 -63 0
-127 46 0
-127 42 0
-127 54 0
-127 64 0
-127 -62 0
-127 -58 0
-127 -33 49 0
-127 33 -49 0
-127 -34 50 0
-127 34 -50 0
-127 -35 51 0
-127 35 -51 0
-127 -36 52 0
-127 36 -52 0
-127 -37 53 0
-127 37 -53 0
-127 -39 55 0
-127 39 -55 0
-127 -40 56 0
-127 40 -56 0
-127 -41 57 0
-127 41 -57 0
-127 -43 59 0
-127 43 -59 0
-127 -44 60 0
-127 44 -60 0
-127 -45 61 0
-127 45 -61 0
-127 -47 63 0
-127 47 -63 0
-128 48 0
-128 38 0
-128 43 0
-128 62 0
-128 58 0
-128 -54 0
-128 -64 0
-128 -33 49 0
-128 33 -49 0
-128 -34 50 0
-128 34 -50 0
-128 -35 51 0
-128 35 -51 0
-128 -36 52 0
-128 36 -52 0
-128 -37 53 0
-128 37 -53 0
-128 -39 55 0
-128 39 -55 0
-128 -40 56 0
-128 40 -56 0
-128 -41 57 0
-128 41 -57 0
-128 -43 59 0
-128 43 -59 0
-128 -44 60 0
-128 44 -60 0
-128 -45 61 0
-128 45 -61 0
-128 -47 63 0
-128 47 -63 0
-129 46 0
-129 44 0
-129 55 0
-129 64 0
-129 -60 0
-129 -62 0
-129 -33 49 0
-129 33 -49 0
-129 -34 50 0
-129 34 -50 0
-129 -35 51 0
-129 35 -51 0
-129 -36 52 0
-129 36 -52 0
-129 -37 53 0
-129 37 -53 0
-129 -38 54 0
-129 38 -54 0
-129 -40 56 0
-129 40 -56 0
-129 -41 57 0
-129 41 -57 0
-129 -42 58 0
-129 42 -58 0
-129 -43 59 0
-129 43 -59 0
-129 -45 61 0
-129 45 -61 0
-129 -47 63 0
-129 47 -63 0
-130 48 0
-130 39 0
-130 43 0
-130 60 0
-130 62 0
-130 -64 0
-130 -55 0
-130 -33 49 0
-130 33 -49 0
-130 -34 50 0
-130 34 -50 0
-130 -35 51 0
-130 35 -51 0
-130 -36 52 0
-130 36 -52 0
-130 -37 53 0
-130 37 -53 0
-130 -38 54 0
-130 38 -54 0
-130 -40 56 0
-130 40 -56 0
-130 -41 57 0
-130 41 -57 0
-130 -42 58 0
-130 42 -58 0
-130 -43 59 0
-130 43 -59 0
-130 -45 61 0
-130 45 -61 0
-130 -47 63 0
-130 47 -63 0
-131 47 0
-131 42 0
-131 64 0
-131 56 0
-131 -63 0
-131 -58 0
-131 -33 49 0
-131 33 -49 0
-131 -34 50 0
-131 34 -50 0
-131 -35 51 0
-131 35 -51 0
-131 -36 52 0
-131 36 -52 0
-131 -37 53 0
-131 37 -53 0
-131 -38 54 0
-131 38 -54 0
-131 -39 55 0
-131 39 -55 0
-131 -41 57 0
-131 41 -57 0
-131 -43 59 0
-131 43 -59 0
-131 -44 60 0
-131 44 -60 0
-131 -45 61 0
-131 45 -61 0
-131 -46 62 0
-131 46 -62 0
-132 48 0
-132 40 0
-132 44 0
-132 63 0
-132 58 0
-132 -64 0
-132 -56 0
-132 -33 49 0
-132 33 -49 0
-132 -34 50 0
-132 34 -50 0
-132 -35 51 0
-132 35 -51 0
-132 -36 52 0
-132 36 -52 0
-132 -37 53 0
-132 37 -53 0
-132 -38 54 0
-132 38 -54 0
-132 -39 55 0
-132 39 -55 0
-132 -41 57 0
-132 41 -57 0
-132 -43 59 0
-132 43 -59 0
-132 -44 60 0
-132 44 -60 0
-132 -45 61 0
-132 45 -61 0
-132 -46 62 0
-132 46 -62 0
-133 47 0
-133 43 0
-133 57 0
-133 64 0
-133 -63 0
-133 -59 0
-133 -33 49 0
-133 33 -49 0
-133 -34 50 0
-133 34 -50 0
-133 -35 51 0
-133 35 -51 0
-133 -36 52 0
-133 36 -52 0
-133 -37 53 0
-133 37 -53 0
-133 -38 54 0
-133 38 -54 0
-133 -39 55 0
-133 39 -55 0
-133 -40 56 0
-133 40 -56 0
-133 -42 58 0
-133 42 -58 0
-133 -44 60 0
-133 44 -60 0
-133 -45 61 0
-133 45 -61 0
-133 -46 62 0
-133 46 -62 0
-134 48 0
-134 41 0
-134 44 0
-134 63 0
-134 59 0
-134 -57 0
-134 -64 0
-134 -33 49 0
-134 33 -49 0
-134 -34 50 0
-134 34 -50 0
-134 -35 51 0
-134 35 -51 0
-134 -36 52 0
-134 36 -52 0
-134 -37 53 0
-134 37 -53 0
-134 -38 54 0
-134 38 -54 0
-134 -39 55 0
-134 39 -55 0
-134 -40 56 0
-134 40 -56 0
-134 -42 58 0
-134 42 -58 0
-134 -44 60 0
-134 44 -60 0
-134 -45 61 0
-134 45 -61 0
-134 -46 62 0
-134 46 -62 0
135 136 137 138 139 140 141 142 143 144 145 146 147 148 149 150 151 152 0
-135 -136 0
-135 -137 0
-135 -138 0
-135 -139 0
-135 -140 0
-135 -141 0
-135 -142 0
-135 -143 0
-135 -144 0
-135 -145 0
-135 -146 0
-135 -147 0
-135 -148 0
-135 -149 0
-135 -150 0
-135 -151 0
-135 -152 0
-136 -137 0
-136 -138 0
-136 -139 0
-136 -140 0
-136 -141 0
-136 -142 0
-136 -143 0
-136 -144 0
-136 -145 0
-136 -146 0
-136 -147 0
-136 -148 0
-136 -149 0
-136 -150 0
-136 -151 0
-136 -152 0
-137 -138 0
-137 -139 0
-137 -140 0
-137 -141 0
-137 -142 0
-137 -143 0
-137 -144 0
-137 -145 0
-137 -146 0
-137 -147 0
-137 -148 0
-137 -149 0
-137 -150 0
-137 -151 0
-137 -152 0
-138 -139 0
-138 -140 0
-138 -141 0
-138 -142 0
-138 -143 0
-138 -144 0
-138 -145 0
-138 -146 0
-138 -147 0
-138 -148 0
-138 -149 0
-138 -150 0
-138 -151 0
-138 -152 0
-139 -140 0
-139 -141 0
-139 -142 0
-139 -143 0
-139 -144 0
-139 -145 0
-139 -146 0
-139 -147 0
-139 -148 0
-139 -149 0
-139 -150 0
-139 -151 0
-139 -152 0
-140 -141 0
-140 -142 0
-140 -143 0
-140 -144 0
-140 -145 0
-140 -146 0
-140 -147 0
-140 -148 0
-140 -149 0
-140 -150 0
-140 -151 0
-140 -152 0
-141 -142 0
-141 -143 0
-141 -144 0
-141 -145 0
-141 -146 0
-141 -147 0
-141 -148 0
-141 -149 0
-141 -150 0
-141 -151 0
-141 -152 0
-142 -143 0
-142 -144 0
-142 -145 0
-142 -146 0
-142 -147 0
-142 -148 0
-142 -149 0
-142 -150 0
-142 -151 0
-142 -152 0
-143 -144 0
-143 -145 0
-143 -146 0
-143 -147 0
-143 -148 0
-143 -149 0
-143 -150 0
-143 -151 0
-143 -152 0
-144 -145 0
-144 -146 0
-144 -147 0
-144 -148 0
-144 -149 0
-144 -150 0
-144 -151 0
-144 -152 0
-145 -146 0
-145 -147 0
-145 -148 0
-145 -149 0
-145 -150 0
-145 -151 0
-145 -152 0
-146 -147 0
-146 -148 0
-146 -149 0
-146 -150 0
-146 -151 0
-146 -152 0
-147 -148 0
-147 -149 0
-147 -150 0
-147 -151 0
-147 -152 0
-148 -149 0
-148 -150 0
-148 -151 0
-148 -152 0
-149 -150 0
-149 -151 0
-149 -152 0
-150 -151 0
-150 -152 0
-151 -152 0
-135 64 0
-135 58 0
-135 49 0
-135 77 0
-135 -80 0
-135 -65 0
-135 -50 66 0
-135 50 -66 0
-135 -51 67 0
-135 51 -67 0
-135 -52 68 0
-135 52 -68 0
-135 -53 69 0
-135 53 -69 0
-135 -54 70 0
-135 54 -70 0
-135 -55 71 0
-135 55 -71 0
-135 -56 72 0
-135 56 -72 0
-135 -57 73 0
-135 57 -73 0
-135 -58 74 0
-135 58 -74 0
-135 -59 75 0
-135 59 -75 0
-135 -60 76 0
-135 60 -76 0
-135 -62 78 0
-135 62 -78 0
-135 -63 79 0
-135 63 -79 0
-136 61 0
-136 80 0
-136 65 0
-136 74 0
-136 -77 0
-136 -50 66 0
-136 50 -66 0
-136 -51 67 0
-136 51 -67 0
-136 -52 68 0
-136 52 -68 0
-136 -53 69 0
-136 53 -69 0
-136 -54 70 0
-136 54 -70 0
-136 -55 71 0
-136 55 -71 0
-136 -56 72 0
-136 56 -72 0
-136 -57 73 0
-136 57 -73 0
-136 -59 75 0
-136 59 -75 0
-136 -60 76 0
-136 60 -76 0
-136 -62 78 0
-136 62 -78 0
-136 -63 79 0
-136 63 -79 0
-137 64 0
-137 59 0
-137 50 0
-137 78 0
-137 -80 0
-137 -66 0
-137 -49 65 0
-137 49 -65 0
-137 -51 67 0
-137 51 -67 0
-137 -52 68 0
-137 52 -68 0
-137 -53 69 0
-137 53 -69 0
-137 -54 70 0
-137 54 -70 0
-137 -55 71 0
-137 55 -71 0
-137 -56 72 0
-137 56 -72 0
-137 -57 73 0
-137 57 -73 0
-137 -58 74 0
-137 58 -74 0
-137 -59 75 0
-137 59 -75 0
-137 -60 76 0
-137 60 -76 0
-137 -61 77 0
-137 61 -77 0
-137 -63 79 0
-137 63 -79 0
-138 62 0
-138 80 0
-138 66 0
-138 75 0
-138 -78 0
-138 -49 65 0
-138 49 -65 0
-138 -51 67 0
-138 51 -67 0
-138 -52 68 0
-138 52 -68 0
-138 -53 69 0
-138 53 -69 0
-138 -54 70 0
-138 54 -70 0
-138 -55 71 0
-138 55 -71 0
-138 -56 72 0
-138 56 -72 0
-138 -57 73 0
-138 57 -73 0
-138 -58 74 0
-138 58 -74 0
-138 -60 76 0
-138 60 -76 0
-138 -61 77 0
-138 61 -77 0
-138 -63 79 0
-138 63 -79 0
-139 64 0
-139 60 0
-139 51 0
-139 79 0
-139 -67 0
-139 -80 0
-139 -49 65 0
-139 49 -65 0
-139 -50 66 0
-139 50 -66 0
-139 -52 68 0
-139 52 -68 0
-139 -53 69 0
-139 53 -69 0
-139 -54 70 0
-139 54 -70 0
-139 -55 71 0
-139 55 -71 0
-139 -56 72 0
-139 56 -72 0
-139 -57 73 0
-139 57 -73 0
-139 -58 74 0
-139 58 -74 0
-139 -59 75 0
-139 59 -75 0
-139 -60 76 0
-139 60 -76 0
-139 -61 77 0
-139 61 -77 0
-139 -62 78 0
-139 62 -78 0
-140 63 0
-140 67 0
-140 80 0
-140 76 0
-140 -79 0
-140 -49 65 0
-140 49 -65 0
-140 -50 66 0
-140 50 -66 0
-140 -52 68 0
-140 52 -68 0
-140 -53 69 0
-140 53 -69 0
-140 -54 70 0
-140 54 -70 0
-140 -55 71 0
-140 55 -71 0
-140 -56 72 0
-140 56 -72 0
-140 -57 73 0
-140 57 -73 0
-140 -58 74 0
-140 58 -74 0
-140 -59 75 0
-140 59 -75 0
-140 -61 77 0
-140 61 -77 0
-140 -62 78 0
-140 62 -78 0
-141 61 0
-141 59 0
-141 80 0
-141 68 0
-141 -75 0
-141 -77 0
-141 -49 65 0
-141 49 -65 0
-141 -50 66 0
-141 50 -66 0
-141 -51 67 0
-141 51 -67 0
-141 -53 69 0
-141 53 -69 0
-141 -54 70 0
-141 54 -70 0
-141 -55 71 0
-141 55 -71 0
-141 -56 72 0
-141 56 -72 0
-141 -57 73 0
-141 57 -73 0
-141 -58 74 0
-141 58 -74 0
-141 -60 76 0
-141 60 -76 0
-141 -62 78 0
-141 62 -78 0
-141 -63 79 0
-141 63 -79 0
-142 64 0
-142 52 0
-142 58 0
-142 75 0
-142 77 0
-142 -80 0
-142 -68 0
-142 -49 65 0
-142 49 -65 0
-142 -50 66 0
-142 50 -66 0
-142 -51 67 0
-142 51 -67 0
-142 -53 69 0
-142 53 -69 0
-142 -54 70 0
-142 54 -70 0
-142 -55 71 0
-142 55 -71 0
-142 -56 72 0
-142 56 -72 0
-142 -57 73 0
-142 57 -73 0
-142 -58 74 0
-142 58 -74 0
-142 -60 76 0
-142 60 -76 0
-142 -62 78 0
-142 62 -78 0
-142 -63 79 0
-142 63 -79 0
-143 61 0
-143 60 0
-143 80 0
-143 69 0
-143 -76 0
-143 -77 0
-143 -49 65 0
-143 49 -65 0
-143 -50 66 0
-143 50 -66 0
-143 -51 67 0
-143 51 -67 0
-143 -52 68 0
-143 52 -68 0
-143 -54 70 0
-143 54 -70 0
-143 -55 71 0
-143 55 -71 0
-143 -56 72 0
-143 56 -72 0
-143 -57 73 0
-143 57 -73 0
-143 -58 74 0
-143 58 -74 0
-143 -59 75 0
-143 59 -75 0
-143 -62 78 0
-143 62 -78 0
-143 -63 79 0
-143 63 -79 0
-144 64 0
-144 53 0
-144 58 0
-144 76 0
-144 77 0
-144 -80 0
-144 -69 0
-144 -49 65 0
-144 49 -65 0
-144 -50 66 0
-144 50 -66 0
-144 -51 67 0
-144 51 -67 0
-144 -52 68 0
-144 52 -68 0
-144 -54 70 0
-144 54 -70 0
-144 -55 71 0
-144 55 -71 0
-144 -56 72 0
-144 56 -72 0
-144 -57 73 0
-144 57 -73 0
-144 -58 74 0
-144 58 -74 0
-144 -59 75 0
-144 59 -75 0
-144 -62 78 0
-144 62 -78 0
-144 -63 79 0
-144 63 -79 0
-145 62 0
-145 58 0
-145 70 0
-145 80 0
-145 -78 0
-145 -74 0
-145 -49 65 0
-145 49 -65 0
-145 -50 66 0
-145 50 -66 0
-145 -51 67 0
-145 51 -67 0
-145 -52 68 0
-145 52 -68 0
-145 -53 69 0
-145 53 -69 0
-145 -55 71 0
-145 55 -71 0
-145 -56 72 0
-145 56 -72 0
-145 -57 73 0
-145 57 -73 0
-145 -59 75 0
-145 59 -75 0
-145 -60 76 0
-145 60 -76 0
-145 -61 77 0
-145 61 -77 0
-145 -63 79 0
-145 63 -79 0
-146 64 0
-146 54 0
-146 59 0
-146 78 0
-146 74 0
-146 -70 0
-146 -80 0
-146 -49 65 0
-146 49 -65 0
-146 -50 66 0
-146 50 -66 0
-146 -51 67 0
-146 51 -67 0
-146 -52 68 0
-146 52 -68 0
-146 -53 69 0
-146 53 -69 0
-146 -55 71 0
-146 55 -71 0
-146 -56 72 0
-146 56 -72 0
-146 -57 73 0
-146 57 -73 0
-146 -59 75 0
-146 59 -75 0
-146 -60 76 0
-146 60 -76 0
-146 -61 77 0
-146 61 -77 0
-146 -63 79 0
-146 63 -79 0
-147 62 0
-147 60 0
-147 71 0
-147 80 0
-147 -76 0
-147 -78 0
-147 -49 65 0
-147 49 -65 0
-147 -50 66 0
-147 50 -66 0
-147 -51 67 0
-147 51 -67 0
-147 -52 68 0
-147 52 -68 0
-147 -53 69 0
-147 53 -69 0
-147 -54 70 0
-147 54 -70 0
-147 -56 72 0
-147 56 -72 0
-147 -57 73 0
-147 57 -73 0
-147 -58 74 0
-147 58 -74 0
-147 -59 75 0
-147 59 -75 0
-147 -61 77 0
-147 61 -77 0
-147 -63 79 0
-147 63 -79 0
-148 64 0
-148 55 0
-148 59 0
-148 76 0
-148 78 0
-148 -80 0
-148 -71 0
-148 -49 65 0
-148 49 -65 0
-148 -50 66 0
-148 50 -66 0
-148 -51 67 0
-148 51 -67 0
-148 -52 68 0
-148 52 -68 0
-148 -53 69 0
-148 53 -69 0
-148 -54 70 0
-148 54 -70 0
-148 -56 72 0
-148 56 -72 0
-148 -57 73 0
-148 57 -73 0
-148 -58 74 0
-148 58 -74 0
-148 -59 75 0
-148 59 -75 0
-148 -61 77 0
-148 61 -77 0
-148 -63 79 0
-148 63 -79 0
-149 63 0
-149 58 0
-149 80 0
-149 72 0
-149 -79 0
-149 -74 0
-149 -49 65 0
-149 49 -65 0
-149 -50 66 0
-149 50 -66 0
-149 -51 67 0
-149 51 -67 0
-149 -52 68 0
-149 52 -68 0
-149 -53 69 0
-149 53 -69 0
-149 -54 70 0
-149 54 -70 0
-149 -55 71 0
-149 55 -71 0
-149 -57 73 0
-149 57 -73 0
-149 -59 75 0
-149 59 -75 0
-149 -60 76 0
-149 60 -76 0
-149 -61 77 0
-149 61 -77 0
-149 -62 78 0
-149 62 -78 0
-150 64 0
-150 56 0
-150 60 0
-150 79 0
-150 74 0
-150 -80 0
-150 -72 0
-150 -49 65 0
-150 49 -65 0
-150 -50 66 0
-150 50 -66 0
-150 -51 67 0
-150 51 -67 0
-150 -52 68 0
-150 52 -68 0
-150 -53 69 0
-150 53 -69 0
-150 -54 70 0
-150 54 -70 0
-150 -55 71 0
-150 55 -71 0
-150 -57 73 0
-150 57 -73 0
-150 -59 75 0
-150 59 -75 0
-150 -60 76 0
-150 60 -76 0
-150 -61 77 0
-150 61 -77 0
-150 -62 78 0
-150 62 -78 0
-151 63 0
-151 59 0
-151 73 0
-151 80 0
-151 -79 0
-151 -75 0
-151 -49 65 0
-151 49 -65 0
-151 -50 66 0
-151 50 -66 0
-151 -51 67 0
-151 51 -67 0
-151 -52 68 0
-151 52 -68 0
-151 -53 69 0
-151 53 -69 0
-151 -54 70 0
-151 54 -70 0
-151 -55 71 0
-151 55 -71 0
-151 -56 72 0
-151 56 -72 0
-151 -58 74 0
-151 58 -74 0
-151 -60 76 0
-151 60 -76 0
-151 -61 77 0
-151 61 -77 0
-151 -62 78 0
-151 62 -78 0
-152 64 0
-152 57 0
-152 60 0
-152 79 0
-152 75 0
-152 -73 0
-152 -80 0
-152 -49 65 0
-152 49 -65 0
-152 -50 66 0
-152 50 -66 0
-152 -51 67 0
-152 51 -67 0
-152 -52 68 0
-152 52 -68 0
-152 -53 69 0
-152 53 -69 0
-152 -54 70 0
-152 54 -70 0
-152 -55 71 0
-152 55 -71 0
-152 -56 72 0
-152 56 -72 0
-152 -58 74 0
-152 58 -74 0
-152 -60 76 0
-152 60 -76 0
-152 -61 77 0
-152 61 -77 0
-152 -62 78 0
-152 62 -78 0
